p edge 262
e 0 2
e 0 12
e 0 13
e 0 148
e 0 219
e 0 222
e 1 215
e 1 216
e 1 220
e 1 222
e 1 234
e 2 12
e 2 215
e 2 219
e 2 222
e 3 4
e 3 12
e 3 212
e 4 212
e 4 221
e 5 6
e 5 39
e 5 108
e 5 115
e 5 213
e 6 39
e 6 175
e 6 211
e 6 213
e 7 10
e 7 32
e 7 60
e 7 163
e 7 233
e 8 19
e 8 139
e 8 141
e 9 18
e 9 42
e 9 143
e 10 176
e 11 14
e 11 34
e 11 109
e 11 217
e 11 244
e 12 13
e 12 34
e 12 212
e 13 34
e 13 148
e 14 144
e 14 147
e 14 217
e 14 218
e 15 59
e 15 221
e 15 251
e 16 17
e 16 44
e 16 105
e 16 111
e 17 105
e 17 111
e 17 142
e 18 42
e 18 50
e 18 57
e 18 247
e 18 248
e 19 21
e 19 84
e 19 114
e 19 139
e 19 141
e 19 144
e 19 166
e 20 22
e 20 29
e 20 114
e 20 232
e 20 243
e 21 22
e 21 84
e 21 114
e 22 84
e 22 113
e 23 24
e 23 25
e 23 26
e 23 29
e 23 35
e 23 101
e 23 232
e 24 28
e 24 29
e 24 35
e 24 43
e 24 58
e 24 101
e 25 26
e 25 101
e 25 104
e 26 65
e 26 232
e 27 28
e 27 53
e 27 101
e 27 104
e 28 43
e 28 53
e 28 101
e 28 102
e 28 254
e 29 58
e 29 232
e 29 243
e 30 31
e 30 53
e 30 65
e 30 104
e 30 253
e 31 33
e 31 49
e 31 64
e 31 65
e 31 223
e 31 232
e 32 60
e 32 163
e 33 40
e 33 49
e 33 52
e 33 118
e 33 253
e 34 147
e 34 149
e 34 212
e 34 244
e 35 101
e 36 38
e 36 60
e 36 106
e 36 141
e 36 233
e 37 106
e 37 139
e 37 252
e 38 60
e 38 62
e 38 106
e 38 163
e 39 40
e 39 46
e 39 52
e 39 115
e 39 145
e 39 146
e 39 235
e 40 49
e 40 52
e 40 66
e 40 109
e 40 175
e 40 218
e 41 103
e 41 123
e 41 180
e 41 193
e 41 257
e 42 46
e 42 63
e 42 143
e 42 246
e 42 248
e 43 51
e 43 58
e 43 102
e 43 110
e 43 111
e 43 116
e 44 105
e 44 111
e 44 112
e 44 117
e 44 122
e 44 164
e 45 108
e 45 115
e 45 245
e 45 249
e 45 250
e 46 63
e 46 112
e 46 146
e 46 235
e 46 246
e 46 261
e 47 57
e 47 246
e 47 248
e 47 249
e 47 250
e 48 51
e 48 53
e 48 102
e 48 116
e 48 118
e 48 253
e 48 254
e 49 218
e 49 223
e 49 236
e 49 237
e 49 238
e 49 240
e 50 57
e 50 59
e 50 247
e 51 52
e 51 111
e 51 116
e 51 118
e 51 119
e 51 120
e 51 121
e 52 118
e 52 121
e 52 145
e 53 253
e 54 55
e 54 58
e 54 61
e 54 255
e 55 56
e 55 58
e 55 61
e 55 176
e 56 61
e 56 163
e 57 59
e 57 247
e 57 248
e 57 249
e 58 110
e 58 139
e 58 255
e 58 256
e 59 249
e 59 251
e 60 233
e 61 62
e 61 252
e 62 163
e 62 252
e 63 112
e 63 143
e 63 164
e 64 84
e 64 113
e 64 166
e 64 223
e 64 232
e 65 104
e 65 232
e 66 109
e 66 214
e 66 217
e 66 218
e 67 144
e 67 174
e 67 223
e 67 237
e 67 238
e 68 89
e 68 123
e 68 151
e 68 168
e 68 170
e 68 188
e 68 205
e 68 259
e 69 71
e 69 90
e 69 96
e 69 204
e 69 258
e 69 260
e 70 72
e 70 189
e 70 201
e 70 202
e 70 207
e 71 96
e 71 158
e 72 201
e 72 207
e 72 257
e 73 74
e 73 86
e 73 173
e 73 179
e 73 186
e 73 187
e 73 203
e 74 75
e 74 86
e 74 178
e 74 181
e 74 208
e 75 86
e 75 181
e 75 182
e 76 77
e 76 107
e 76 125
e 76 131
e 76 134
e 76 162
e 77 107
e 77 124
e 77 125
e 77 153
e 78 82
e 78 83
e 78 156
e 78 160
e 79 129
e 79 136
e 79 157
e 79 161
e 79 162
e 80 81
e 80 82
e 80 126
e 80 137
e 80 138
e 80 154
e 80 160
e 81 82
e 81 138
e 81 150
e 81 167
e 81 168
e 81 169
e 82 83
e 82 150
e 82 160
e 83 134
e 83 156
e 83 159
e 83 161
e 83 172
e 84 113
e 84 166
e 85 88
e 85 94
e 85 96
e 85 140
e 85 204
e 85 206
e 85 210
e 86 95
e 86 182
e 86 184
e 86 187
e 87 90
e 87 100
e 87 140
e 87 204
e 87 260
e 88 92
e 88 97
e 88 98
e 88 140
e 88 177
e 88 195
e 88 196
e 88 210
e 88 225
e 88 227
e 89 94
e 89 188
e 89 190
e 89 229
e 90 100
e 90 258
e 90 260
e 91 94
e 91 96
e 91 151
e 91 155
e 91 171
e 91 205
e 91 259
e 92 93
e 92 95
e 92 98
e 92 99
e 92 225
e 93 99
e 93 100
e 94 96
e 94 206
e 94 229
e 94 259
e 95 182
e 95 184
e 95 225
e 96 155
e 96 204
e 97 177
e 97 185
e 97 189
e 97 197
e 97 202
e 97 227
e 97 230
e 98 99
e 98 100
e 98 140
e 99 100
e 102 116
e 102 254
e 103 193
e 103 257
e 105 142
e 105 164
e 106 139
e 106 141
e 106 252
e 107 216
e 107 234
e 108 213
e 108 249
e 108 251
e 109 175
e 109 211
e 109 214
e 109 217
e 110 111
e 111 120
e 111 122
e 112 117
e 112 145
e 112 146
e 112 164
e 112 261
e 113 232
e 114 139
e 114 243
e 115 235
e 115 245
e 117 119
e 117 120
e 117 122
e 117 145
e 118 253
e 119 120
e 119 121
e 119 145
e 120 122
e 121 145
e 123 170
e 123 173
e 123 178
e 123 179
e 123 180
e 123 188
e 123 257
e 124 125
e 124 132
e 124 153
e 125 131
e 125 132
e 125 153
e 125 169
e 126 127
e 126 130
e 126 137
e 126 138
e 126 154
e 127 128
e 127 130
e 127 133
e 127 154
e 128 133
e 128 154
e 128 157
e 129 133
e 129 136
e 129 152
e 129 155
e 129 157
e 129 171
e 130 133
e 130 135
e 130 138
e 130 168
e 131 134
e 131 169
e 131 172
e 132 153
e 133 135
e 133 157
e 133 171
e 134 159
e 134 161
e 134 162
e 135 168
e 135 171
e 136 152
e 136 158
e 137 138
e 138 168
e 139 141
e 139 243
e 139 256
e 140 204
e 141 144
e 141 233
e 142 143
e 142 164
e 144 147
e 144 148
e 144 166
e 144 168
e 144 170
e 144 174
e 144 218
e 144 220
e 144 223
e 144 233
e 144 234
e 144 241
e 144 242
e 145 146
e 146 261
e 147 148
e 148 220
e 148 222
e 149 165
e 149 212
e 149 244
e 149 251
e 150 169
e 150 172
e 151 168
e 151 171
e 151 205
e 152 155
e 152 158
e 153 167
e 153 168
e 153 169
e 153 234
e 154 156
e 154 160
e 155 158
e 155 171
e 156 157
e 156 160
e 156 161
e 157 161
e 159 172
e 161 162
e 163 176
e 165 211
e 165 213
e 165 244
e 165 251
e 166 223
e 167 168
e 167 169
e 168 170
e 168 171
e 168 234
e 169 172
e 173 179
e 173 186
e 173 187
e 173 257
e 174 239
e 174 241
e 175 211
e 177 185
e 177 187
e 177 195
e 177 225
e 178 179
e 178 203
e 178 208
e 179 203
e 180 188
e 180 193
e 181 182
e 181 183
e 181 208
e 182 183
e 183 208
e 184 187
e 184 225
e 185 187
e 185 189
e 185 207
e 186 187
e 187 207
e 187 225
e 188 190
e 188 192
e 188 193
e 188 199
e 188 226
e 188 228
e 189 202
e 189 207
e 190 197
e 190 199
e 190 228
e 190 229
e 191 193
e 191 194
e 191 198
e 191 201
e 191 231
e 191 257
e 192 193
e 192 224
e 192 226
e 192 231
e 193 194
e 193 231
e 194 257
e 195 196
e 195 225
e 197 199
e 197 224
e 197 227
e 197 229
e 197 230
e 198 200
e 198 201
e 198 209
e 198 231
e 199 228
e 200 201
e 200 202
e 200 209
e 200 230
e 201 202
e 201 257
e 202 230
e 204 260
e 205 259
e 206 210
e 206 227
e 206 229
e 207 257
e 209 224
e 209 230
e 209 231
e 210 227
e 211 244
e 212 251
e 214 217
e 215 216
e 217 218
e 218 236
e 218 242
e 219 222
e 220 222
e 220 234
e 221 251
e 223 237
e 224 230
e 224 231
e 227 229
e 235 245
e 235 246
e 236 240
e 236 241
e 236 242
e 237 238
e 238 239
e 238 240
e 239 240
e 239 241
e 240 241
e 241 242
e 245 246
e 245 250
e 246 248
e 249 251
e 252 255
e 252 256
e 255 256
e 258 260
c k 1
